p cnf 519 2090
6 0
11 0
16 0
21 0
12 0
17 0
22 0
18 0
23 0
24 0
-6 -12 11 0
-6 -17 16 0
-6 -22 21 0
-11 -8 6 0
-11 -18 16 0
-11 -23 21 0
-16 -9 6 0
-16 -14 11 0
-16 -24 21 0
-21 -10 6 0
-21 -15 11 0
-21 -20 16 0
-2 -11 12 0
-2 -16 17 0
-2 -21 22 0
-12 -3 2 0
-12 -18 17 0
-12 -23 22 0
-17 -4 2 0
-17 -14 12 0
-17 -24 22 0
-22 -5 2 0
-22 -15 12 0
-22 -20 17 0
-3 -6 8 0
-3 -16 18 0
-3 -21 23 0
-8 -2 3 0
-8 -17 18 0
-8 -22 23 0
-18 -4 3 0
-18 -9 8 0
-18 -24 23 0
-23 -5 3 0
-23 -10 8 0
-23 -20 18 0
-4 -6 9 0
-4 -11 14 0
-4 -21 24 0
-9 -2 4 0
-9 -12 14 0
-9 -22 24 0
-14 -3 4 0
-14 -8 9 0
-14 -23 24 0
-24 -5 4 0
-24 -10 9 0
-24 -15 14 0
-5 -6 10 0
-5 -11 15 0
-5 -16 20 0
-10 -2 5 0
-10 -12 15 0
-10 -17 20 0
-15 -3 5 0
-15 -8 10 0
-15 -18 20 0
-20 -4 5 0
-20 -9 10 0
-20 -14 15 0
-31 -37 36 0
-31 -42 41 0
-31 -47 46 0
-36 -33 31 0
-36 -43 41 0
-36 -48 46 0
-41 -34 31 0
-41 -39 36 0
-41 -49 46 0
-46 -35 31 0
-46 -40 36 0
-46 -45 41 0
-27 -36 37 0
-27 -41 42 0
-27 -46 47 0
-37 -28 27 0
-37 -43 42 0
-37 -48 47 0
-42 -29 27 0
-42 -39 37 0
-42 -49 47 0
-47 -30 27 0
-47 -40 37 0
-47 -45 42 0
-28 -31 33 0
-28 -41 43 0
-28 -46 48 0
-33 -27 28 0
-33 -42 43 0
-33 -47 48 0
-43 -29 28 0
-43 -34 33 0
-43 -49 48 0
-48 -30 28 0
-48 -35 33 0
-48 -45 43 0
-29 -31 34 0
-29 -36 39 0
-29 -46 49 0
-34 -27 29 0
-34 -37 39 0
-34 -47 49 0
-39 -28 29 0
-39 -33 34 0
-39 -48 49 0
-49 -30 29 0
-49 -35 34 0
-49 -40 39 0
-30 -31 35 0
-30 -36 40 0
-30 -41 45 0
-35 -27 30 0
-35 -37 40 0
-35 -42 45 0
-40 -28 30 0
-40 -33 35 0
-40 -43 45 0
-45 -29 30 0
-45 -34 35 0
-45 -39 40 0
-56 -62 61 0
-56 -67 66 0
-56 -72 71 0
-61 -58 56 0
-61 -68 66 0
-61 -73 71 0
-66 -59 56 0
-66 -64 61 0
-66 -74 71 0
-71 -60 56 0
-71 -65 61 0
-71 -70 66 0
-52 -61 62 0
-52 -66 67 0
-52 -71 72 0
-62 -53 52 0
-62 -68 67 0
-62 -73 72 0
-67 -54 52 0
-67 -64 62 0
-67 -74 72 0
-72 -55 52 0
-72 -65 62 0
-72 -70 67 0
-53 -56 58 0
-53 -66 68 0
-53 -71 73 0
-58 -52 53 0
-58 -67 68 0
-58 -72 73 0
-68 -54 53 0
-68 -59 58 0
-68 -74 73 0
-73 -55 53 0
-73 -60 58 0
-73 -70 68 0
-54 -56 59 0
-54 -61 64 0
-54 -71 74 0
-59 -52 54 0
-59 -62 64 0
-59 -72 74 0
-64 -53 54 0
-64 -58 59 0
-64 -73 74 0
-74 -55 54 0
-74 -60 59 0
-74 -65 64 0
-55 -56 60 0
-55 -61 65 0
-55 -66 70 0
-60 -52 55 0
-60 -62 65 0
-60 -67 70 0
-65 -53 55 0
-65 -58 60 0
-65 -68 70 0
-70 -54 55 0
-70 -59 60 0
-70 -64 65 0
-81 -87 86 0
-81 -92 91 0
-81 -97 96 0
-86 -83 81 0
-86 -93 91 0
-86 -98 96 0
-91 -84 81 0
-91 -89 86 0
-91 -99 96 0
-96 -85 81 0
-96 -90 86 0
-96 -95 91 0
-77 -86 87 0
-77 -91 92 0
-77 -96 97 0
-87 -78 77 0
-87 -93 92 0
-87 -98 97 0
-92 -79 77 0
-92 -89 87 0
-92 -99 97 0
-97 -80 77 0
-97 -90 87 0
-97 -95 92 0
-78 -81 83 0
-78 -91 93 0
-78 -96 98 0
-83 -77 78 0
-83 -92 93 0
-83 -97 98 0
-93 -79 78 0
-93 -84 83 0
-93 -99 98 0
-98 -80 78 0
-98 -85 83 0
-98 -95 93 0
-79 -81 84 0
-79 -86 89 0
-79 -96 99 0
-84 -77 79 0
-84 -87 89 0
-84 -97 99 0
-89 -78 79 0
-89 -83 84 0
-89 -98 99 0
-99 -80 79 0
-99 -85 84 0
-99 -90 89 0
-80 -81 85 0
-80 -86 90 0
-80 -91 95 0
-85 -77 80 0
-85 -87 90 0
-85 -92 95 0
-90 -78 80 0
-90 -83 85 0
-90 -93 95 0
-95 -79 80 0
-95 -84 85 0
-95 -89 90 0
-106 -112 111 0
-106 -117 116 0
-106 -122 121 0
-111 -108 106 0
-111 -118 116 0
-111 -123 121 0
-116 -109 106 0
-116 -114 111 0
-116 -124 121 0
-121 -110 106 0
-121 -115 111 0
-121 -120 116 0
-102 -111 112 0
-102 -116 117 0
-102 -121 122 0
-112 -103 102 0
-112 -118 117 0
-112 -123 122 0
-117 -104 102 0
-117 -114 112 0
-117 -124 122 0
-122 -105 102 0
-122 -115 112 0
-122 -120 117 0
-103 -106 108 0
-103 -116 118 0
-103 -121 123 0
-108 -102 103 0
-108 -117 118 0
-108 -122 123 0
-118 -104 103 0
-118 -109 108 0
-118 -124 123 0
-123 -105 103 0
-123 -110 108 0
-123 -120 118 0
-104 -106 109 0
-104 -111 114 0
-104 -121 124 0
-109 -102 104 0
-109 -112 114 0
-109 -122 124 0
-114 -103 104 0
-114 -108 109 0
-114 -123 124 0
-124 -105 104 0
-124 -110 109 0
-124 -115 114 0
-105 -106 110 0
-105 -111 115 0
-105 -116 120 0
-110 -102 105 0
-110 -112 115 0
-110 -117 120 0
-115 -103 105 0
-115 -108 110 0
-115 -118 120 0
-120 -104 105 0
-120 -109 110 0
-120 -114 115 0
-131 -137 136 0
-131 -142 141 0
-131 -147 146 0
-136 -133 131 0
-136 -143 141 0
-136 -148 146 0
-141 -134 131 0
-141 -139 136 0
-141 -149 146 0
-146 -135 131 0
-146 -140 136 0
-146 -145 141 0
-127 -136 137 0
-127 -141 142 0
-127 -146 147 0
-137 -128 127 0
-137 -143 142 0
-137 -148 147 0
-142 -129 127 0
-142 -139 137 0
-142 -149 147 0
-147 -130 127 0
-147 -140 137 0
-147 -145 142 0
-128 -131 133 0
-128 -141 143 0
-128 -146 148 0
-133 -127 128 0
-133 -142 143 0
-133 -147 148 0
-143 -129 128 0
-143 -134 133 0
-143 -149 148 0
-148 -130 128 0
-148 -135 133 0
-148 -145 143 0
-129 -131 134 0
-129 -136 139 0
-129 -146 149 0
-134 -127 129 0
-134 -137 139 0
-134 -147 149 0
-139 -128 129 0
-139 -133 134 0
-139 -148 149 0
-149 -130 129 0
-149 -135 134 0
-149 -140 139 0
-130 -131 135 0
-130 -136 140 0
-130 -141 145 0
-135 -127 130 0
-135 -137 140 0
-135 -142 145 0
-140 -128 130 0
-140 -133 135 0
-140 -143 145 0
-145 -129 130 0
-145 -134 135 0
-145 -139 140 0
-156 -162 161 0
-156 -167 166 0
-156 -172 171 0
-161 -158 156 0
-161 -168 166 0
-161 -173 171 0
-166 -159 156 0
-166 -164 161 0
-166 -174 171 0
-171 -160 156 0
-171 -165 161 0
-171 -170 166 0
-152 -161 162 0
-152 -166 167 0
-152 -171 172 0
-162 -153 152 0
-162 -168 167 0
-162 -173 172 0
-167 -154 152 0
-167 -164 162 0
-167 -174 172 0
-172 -155 152 0
-172 -165 162 0
-172 -170 167 0
-153 -156 158 0
-153 -166 168 0
-153 -171 173 0
-158 -152 153 0
-158 -167 168 0
-158 -172 173 0
-168 -154 153 0
-168 -159 158 0
-168 -174 173 0
-173 -155 153 0
-173 -160 158 0
-173 -170 168 0
-154 -156 159 0
-154 -161 164 0
-154 -171 174 0
-159 -152 154 0
-159 -162 164 0
-159 -172 174 0
-164 -153 154 0
-164 -158 159 0
-164 -173 174 0
-174 -155 154 0
-174 -160 159 0
-174 -165 164 0
-155 -156 160 0
-155 -161 165 0
-155 -166 170 0
-160 -152 155 0
-160 -162 165 0
-160 -167 170 0
-165 -153 155 0
-165 -158 160 0
-165 -168 170 0
-170 -154 155 0
-170 -159 160 0
-170 -164 165 0
-181 -187 186 0
-181 -192 191 0
-181 -197 196 0
-186 -183 181 0
-186 -193 191 0
-186 -198 196 0
-191 -184 181 0
-191 -189 186 0
-191 -199 196 0
-196 -185 181 0
-196 -190 186 0
-196 -195 191 0
-177 -186 187 0
-177 -191 192 0
-177 -196 197 0
-187 -178 177 0
-187 -193 192 0
-187 -198 197 0
-192 -179 177 0
-192 -189 187 0
-192 -199 197 0
-197 -180 177 0
-197 -190 187 0
-197 -195 192 0
-178 -181 183 0
-178 -191 193 0
-178 -196 198 0
-183 -177 178 0
-183 -192 193 0
-183 -197 198 0
-193 -179 178 0
-193 -184 183 0
-193 -199 198 0
-198 -180 178 0
-198 -185 183 0
-198 -195 193 0
-179 -181 184 0
-179 -186 189 0
-179 -196 199 0
-184 -177 179 0
-184 -187 189 0
-184 -197 199 0
-189 -178 179 0
-189 -183 184 0
-189 -198 199 0
-199 -180 179 0
-199 -185 184 0
-199 -190 189 0
-180 -181 185 0
-180 -186 190 0
-180 -191 195 0
-185 -177 180 0
-185 -187 190 0
-185 -192 195 0
-190 -178 180 0
-190 -183 185 0
-190 -193 195 0
-195 -179 180 0
-195 -184 185 0
-195 -189 190 0
6 2 0
-6 -2 0
11 3 0
-11 -3 0
16 4 0
-16 -4 0
21 5 0
-21 -5 0
2 6 0
-2 -6 0
12 8 0
-12 -8 0
17 9 0
-17 -9 0
22 10 0
-22 -10 0
3 11 0
-3 -11 0
8 12 0
-8 -12 0
18 14 0
-18 -14 0
23 15 0
-23 -15 0
4 16 0
-4 -16 0
9 17 0
-9 -17 0
14 18 0
-14 -18 0
24 20 0
-24 -20 0
5 21 0
-5 -21 0
10 22 0
-10 -22 0
15 23 0
-15 -23 0
20 24 0
-20 -24 0
31 27 0
-31 -27 0
36 28 0
-36 -28 0
41 29 0
-41 -29 0
46 30 0
-46 -30 0
27 31 0
-27 -31 0
37 33 0
-37 -33 0
42 34 0
-42 -34 0
47 35 0
-47 -35 0
28 36 0
-28 -36 0
33 37 0
-33 -37 0
43 39 0
-43 -39 0
48 40 0
-48 -40 0
29 41 0
-29 -41 0
34 42 0
-34 -42 0
39 43 0
-39 -43 0
49 45 0
-49 -45 0
30 46 0
-30 -46 0
35 47 0
-35 -47 0
40 48 0
-40 -48 0
45 49 0
-45 -49 0
56 52 0
-56 -52 0
61 53 0
-61 -53 0
66 54 0
-66 -54 0
71 55 0
-71 -55 0
52 56 0
-52 -56 0
62 58 0
-62 -58 0
67 59 0
-67 -59 0
72 60 0
-72 -60 0
53 61 0
-53 -61 0
58 62 0
-58 -62 0
68 64 0
-68 -64 0
73 65 0
-73 -65 0
54 66 0
-54 -66 0
59 67 0
-59 -67 0
64 68 0
-64 -68 0
74 70 0
-74 -70 0
55 71 0
-55 -71 0
60 72 0
-60 -72 0
65 73 0
-65 -73 0
70 74 0
-70 -74 0
81 77 0
-81 -77 0
86 78 0
-86 -78 0
91 79 0
-91 -79 0
96 80 0
-96 -80 0
77 81 0
-77 -81 0
87 83 0
-87 -83 0
92 84 0
-92 -84 0
97 85 0
-97 -85 0
78 86 0
-78 -86 0
83 87 0
-83 -87 0
93 89 0
-93 -89 0
98 90 0
-98 -90 0
79 91 0
-79 -91 0
84 92 0
-84 -92 0
89 93 0
-89 -93 0
99 95 0
-99 -95 0
80 96 0
-80 -96 0
85 97 0
-85 -97 0
90 98 0
-90 -98 0
95 99 0
-95 -99 0
106 102 0
-106 -102 0
111 103 0
-111 -103 0
116 104 0
-116 -104 0
121 105 0
-121 -105 0
102 106 0
-102 -106 0
112 108 0
-112 -108 0
117 109 0
-117 -109 0
122 110 0
-122 -110 0
103 111 0
-103 -111 0
108 112 0
-108 -112 0
118 114 0
-118 -114 0
123 115 0
-123 -115 0
104 116 0
-104 -116 0
109 117 0
-109 -117 0
114 118 0
-114 -118 0
124 120 0
-124 -120 0
105 121 0
-105 -121 0
110 122 0
-110 -122 0
115 123 0
-115 -123 0
120 124 0
-120 -124 0
131 127 0
-131 -127 0
136 128 0
-136 -128 0
141 129 0
-141 -129 0
146 130 0
-146 -130 0
127 131 0
-127 -131 0
137 133 0
-137 -133 0
142 134 0
-142 -134 0
147 135 0
-147 -135 0
128 136 0
-128 -136 0
133 137 0
-133 -137 0
143 139 0
-143 -139 0
148 140 0
-148 -140 0
129 141 0
-129 -141 0
134 142 0
-134 -142 0
139 143 0
-139 -143 0
149 145 0
-149 -145 0
130 146 0
-130 -146 0
135 147 0
-135 -147 0
140 148 0
-140 -148 0
145 149 0
-145 -149 0
156 152 0
-156 -152 0
161 153 0
-161 -153 0
166 154 0
-166 -154 0
171 155 0
-171 -155 0
152 156 0
-152 -156 0
162 158 0
-162 -158 0
167 159 0
-167 -159 0
172 160 0
-172 -160 0
153 161 0
-153 -161 0
158 162 0
-158 -162 0
168 164 0
-168 -164 0
173 165 0
-173 -165 0
154 166 0
-154 -166 0
159 167 0
-159 -167 0
164 168 0
-164 -168 0
174 170 0
-174 -170 0
155 171 0
-155 -171 0
160 172 0
-160 -172 0
165 173 0
-165 -173 0
170 174 0
-170 -174 0
181 177 0
-181 -177 0
186 178 0
-186 -178 0
191 179 0
-191 -179 0
196 180 0
-196 -180 0
177 181 0
-177 -181 0
187 183 0
-187 -183 0
192 184 0
-192 -184 0
197 185 0
-197 -185 0
178 186 0
-178 -186 0
183 187 0
-183 -187 0
193 189 0
-193 -189 0
198 190 0
-198 -190 0
179 191 0
-179 -191 0
184 192 0
-184 -192 0
189 193 0
-189 -193 0
199 195 0
-199 -195 0
180 196 0
-180 -196 0
185 197 0
-185 -197 0
190 198 0
-190 -198 0
195 199 0
-195 -199 0
-351 -364 0
-351 -377 0
-351 -390 0
-351 -403 0
-351 -416 0
-351 -429 0
-364 -377 0
-364 -390 0
-364 -403 0
-364 -416 0
-364 -429 0
-377 -390 0
-377 -403 0
-377 -416 0
-377 -429 0
-390 -403 0
-390 -416 0
-390 -429 0
-403 -416 0
-403 -429 0
-416 -429 0
-352 -365 0
-352 -378 0
-352 -391 0
-352 -404 0
-352 -417 0
-352 -430 0
-365 -378 0
-365 -391 0
-365 -404 0
-365 -417 0
-365 -430 0
-378 -391 0
-378 -404 0
-378 -417 0
-378 -430 0
-391 -404 0
-391 -417 0
-391 -430 0
-404 -417 0
-404 -430 0
-417 -430 0
-353 -366 0
-353 -379 0
-353 -392 0
-353 -405 0
-353 -418 0
-353 -431 0
-366 -379 0
-366 -392 0
-366 -405 0
-366 -418 0
-366 -431 0
-379 -392 0
-379 -405 0
-379 -418 0
-379 -431 0
-392 -405 0
-392 -418 0
-392 -431 0
-405 -418 0
-405 -431 0
-418 -431 0
-354 -367 0
-354 -380 0
-354 -393 0
-354 -406 0
-354 -419 0
-354 -432 0
-367 -380 0
-367 -393 0
-367 -406 0
-367 -419 0
-367 -432 0
-380 -393 0
-380 -406 0
-380 -419 0
-380 -432 0
-393 -406 0
-393 -419 0
-393 -432 0
-406 -419 0
-406 -432 0
-419 -432 0
-355 -368 0
-355 -381 0
-355 -394 0
-355 -407 0
-355 -420 0
-355 -433 0
-368 -381 0
-368 -394 0
-368 -407 0
-368 -420 0
-368 -433 0
-381 -394 0
-381 -407 0
-381 -420 0
-381 -433 0
-394 -407 0
-394 -420 0
-394 -433 0
-407 -420 0
-407 -433 0
-420 -433 0
-356 -369 0
-356 -382 0
-356 -395 0
-356 -408 0
-356 -421 0
-356 -434 0
-369 -382 0
-369 -395 0
-369 -408 0
-369 -421 0
-369 -434 0
-382 -395 0
-382 -408 0
-382 -421 0
-382 -434 0
-395 -408 0
-395 -421 0
-395 -434 0
-408 -421 0
-408 -434 0
-421 -434 0
-357 -370 0
-357 -383 0
-357 -396 0
-357 -409 0
-357 -422 0
-357 -435 0
-370 -383 0
-370 -396 0
-370 -409 0
-370 -422 0
-370 -435 0
-383 -396 0
-383 -409 0
-383 -422 0
-383 -435 0
-396 -409 0
-396 -422 0
-396 -435 0
-409 -422 0
-409 -435 0
-422 -435 0
-358 -371 0
-358 -384 0
-358 -397 0
-358 -410 0
-358 -423 0
-358 -436 0
-371 -384 0
-371 -397 0
-371 -410 0
-371 -423 0
-371 -436 0
-384 -397 0
-384 -410 0
-384 -423 0
-384 -436 0
-397 -410 0
-397 -423 0
-397 -436 0
-410 -423 0
-410 -436 0
-423 -436 0
-359 -372 0
-359 -385 0
-359 -398 0
-359 -411 0
-359 -424 0
-359 -437 0
-372 -385 0
-372 -398 0
-372 -411 0
-372 -424 0
-372 -437 0
-385 -398 0
-385 -411 0
-385 -424 0
-385 -437 0
-398 -411 0
-398 -424 0
-398 -437 0
-411 -424 0
-411 -437 0
-424 -437 0
-360 -373 0
-360 -386 0
-360 -399 0
-360 -412 0
-360 -425 0
-360 -438 0
-373 -386 0
-373 -399 0
-373 -412 0
-373 -425 0
-373 -438 0
-386 -399 0
-386 -412 0
-386 -425 0
-386 -438 0
-399 -412 0
-399 -425 0
-399 -438 0
-412 -425 0
-412 -438 0
-425 -438 0
-361 -374 0
-361 -387 0
-361 -400 0
-361 -413 0
-361 -426 0
-361 -439 0
-374 -387 0
-374 -400 0
-374 -413 0
-374 -426 0
-374 -439 0
-387 -400 0
-387 -413 0
-387 -426 0
-387 -439 0
-400 -413 0
-400 -426 0
-400 -439 0
-413 -426 0
-413 -439 0
-426 -439 0
-362 -375 0
-362 -388 0
-362 -401 0
-362 -414 0
-362 -427 0
-362 -440 0
-375 -388 0
-375 -401 0
-375 -414 0
-375 -427 0
-375 -440 0
-388 -401 0
-388 -414 0
-388 -427 0
-388 -440 0
-401 -414 0
-401 -427 0
-401 -440 0
-414 -427 0
-414 -440 0
-427 -440 0
-363 -376 0
-363 -389 0
-363 -402 0
-363 -415 0
-363 -428 0
-363 -441 0
-376 -389 0
-376 -402 0
-376 -415 0
-376 -428 0
-376 -441 0
-389 -402 0
-389 -415 0
-389 -428 0
-389 -441 0
-402 -415 0
-402 -428 0
-402 -441 0
-415 -428 0
-415 -441 0
-428 -441 0
351 364 377 390 403 416 429 0
352 365 378 391 404 417 430 0
353 366 379 392 405 418 431 0
354 367 380 393 406 419 432 0
355 368 381 394 407 420 433 0
356 369 382 395 408 421 434 0
357 370 383 396 409 422 435 0
358 371 384 397 410 423 436 0
359 372 385 398 411 424 437 0
360 373 386 399 412 425 438 0
361 374 387 400 413 426 439 0
362 375 388 401 414 427 440 0
363 376 389 402 415 428 441 0
-351 -11 -36 0
-351 11 36 0
-364 -36 -61 0
-364 36 61 0
-377 -61 -86 0
-377 61 86 0
-390 -86 -111 0
-390 86 111 0
-403 -111 -136 0
-403 111 136 0
-416 -136 -161 0
-416 136 161 0
-429 -161 -186 0
-429 161 186 0
-352 -11 -36 0
-352 11 36 0
-365 -36 -61 0
-365 36 61 0
-378 -61 -86 0
-378 61 86 0
-391 -86 -111 0
-391 86 111 0
-404 -111 -136 0
-404 111 136 0
-417 -136 -161 0
-417 136 161 0
-430 -161 -186 0
-430 161 186 0
-353 -11 -36 0
-353 11 36 0
-366 -36 -61 0
-366 36 61 0
-379 -61 -86 0
-379 61 86 0
-392 -86 -111 0
-392 86 111 0
-405 -111 -136 0
-405 111 136 0
-418 -136 -161 0
-418 136 161 0
-431 -161 -186 0
-431 161 186 0
-354 -16 -41 0
-354 16 41 0
-367 -41 -66 0
-367 41 66 0
-380 -66 -91 0
-380 66 91 0
-393 -91 -116 0
-393 91 116 0
-406 -116 -141 0
-406 116 141 0
-419 -141 -166 0
-419 141 166 0
-432 -166 -191 0
-432 166 191 0
-355 -21 -46 0
-355 21 46 0
-368 -46 -71 0
-368 46 71 0
-381 -71 -96 0
-381 71 96 0
-394 -96 -121 0
-394 96 121 0
-407 -121 -146 0
-407 121 146 0
-420 -146 -171 0
-420 146 171 0
-433 -171 -196 0
-433 171 196 0
-356 -21 -46 0
-356 21 46 0
-369 -46 -71 0
-369 46 71 0
-382 -71 -96 0
-382 71 96 0
-395 -96 -121 0
-395 96 121 0
-408 -121 -146 0
-408 121 146 0
-421 -146 -171 0
-421 146 171 0
-434 -171 -196 0
-434 171 196 0
-357 -12 -37 0
-357 12 37 0
-370 -37 -62 0
-370 37 62 0
-383 -62 -87 0
-383 62 87 0
-396 -87 -112 0
-396 87 112 0
-409 -112 -137 0
-409 112 137 0
-422 -137 -162 0
-422 137 162 0
-435 -162 -187 0
-435 162 187 0
-358 -17 -42 0
-358 17 42 0
-371 -42 -67 0
-371 42 67 0
-384 -67 -92 0
-384 67 92 0
-397 -92 -117 0
-397 92 117 0
-410 -117 -142 0
-410 117 142 0
-423 -142 -167 0
-423 142 167 0
-436 -167 -192 0
-436 167 192 0
-359 -22 -47 0
-359 22 47 0
-372 -47 -72 0
-372 47 72 0
-385 -72 -97 0
-385 72 97 0
-398 -97 -122 0
-398 97 122 0
-411 -122 -147 0
-411 122 147 0
-424 -147 -172 0
-424 147 172 0
-437 -172 -197 0
-437 172 197 0
-360 -22 -47 0
-360 22 47 0
-373 -47 -72 0
-373 47 72 0
-386 -72 -97 0
-386 72 97 0
-399 -97 -122 0
-399 97 122 0
-412 -122 -147 0
-412 122 147 0
-425 -147 -172 0
-425 147 172 0
-438 -172 -197 0
-438 172 197 0
-361 -22 -47 0
-361 22 47 0
-374 -47 -72 0
-374 47 72 0
-387 -72 -97 0
-387 72 97 0
-400 -97 -122 0
-400 97 122 0
-413 -122 -147 0
-413 122 147 0
-426 -147 -172 0
-426 147 172 0
-439 -172 -197 0
-439 172 197 0
-362 -18 -43 0
-362 18 43 0
-375 -43 -68 0
-375 43 68 0
-388 -68 -93 0
-388 68 93 0
-401 -93 -118 0
-401 93 118 0
-414 -118 -143 0
-414 118 143 0
-427 -143 -168 0
-427 143 168 0
-440 -168 -193 0
-440 168 193 0
-363 -18 -43 0
-363 18 43 0
-376 -43 -68 0
-376 43 68 0
-389 -68 -93 0
-389 68 93 0
-402 -93 -118 0
-402 93 118 0
-415 -118 -143 0
-415 118 143 0
-428 -143 -168 0
-428 143 168 0
-441 -168 -193 0
-441 168 193 0
-6 31 0
6 -31 0
-11 36 351 352 353 0
11 -36 351 352 353 0
-16 41 354 0
16 -41 354 0
-21 46 355 356 0
21 -46 355 356 0
-12 37 357 0
12 -37 357 0
-17 42 358 0
17 -42 358 0
-22 47 359 360 361 0
22 -47 359 360 361 0
-18 43 362 363 0
18 -43 362 363 0
-23 48 0
23 -48 0
-24 49 0
24 -49 0
-31 56 0
31 -56 0
-36 61 364 365 366 0
36 -61 364 365 366 0
-41 66 367 0
41 -66 367 0
-46 71 368 369 0
46 -71 368 369 0
-37 62 370 0
37 -62 370 0
-42 67 371 0
42 -67 371 0
-47 72 372 373 374 0
47 -72 372 373 374 0
-43 68 375 376 0
43 -68 375 376 0
-48 73 0
48 -73 0
-49 74 0
49 -74 0
-56 81 0
56 -81 0
-61 86 377 378 379 0
61 -86 377 378 379 0
-66 91 380 0
66 -91 380 0
-71 96 381 382 0
71 -96 381 382 0
-62 87 383 0
62 -87 383 0
-67 92 384 0
67 -92 384 0
-72 97 385 386 387 0
72 -97 385 386 387 0
-68 93 388 389 0
68 -93 388 389 0
-73 98 0
73 -98 0
-74 99 0
74 -99 0
-81 106 0
81 -106 0
-86 111 390 391 392 0
86 -111 390 391 392 0
-91 116 393 0
91 -116 393 0
-96 121 394 395 0
96 -121 394 395 0
-87 112 396 0
87 -112 396 0
-92 117 397 0
92 -117 397 0
-97 122 398 399 400 0
97 -122 398 399 400 0
-93 118 401 402 0
93 -118 401 402 0
-98 123 0
98 -123 0
-99 124 0
99 -124 0
-106 131 0
106 -131 0
-111 136 403 404 405 0
111 -136 403 404 405 0
-116 141 406 0
116 -141 406 0
-121 146 407 408 0
121 -146 407 408 0
-112 137 409 0
112 -137 409 0
-117 142 410 0
117 -142 410 0
-122 147 411 412 413 0
122 -147 411 412 413 0
-118 143 414 415 0
118 -143 414 415 0
-123 148 0
123 -148 0
-124 149 0
124 -149 0
-131 156 0
131 -156 0
-136 161 416 417 418 0
136 -161 416 417 418 0
-141 166 419 0
141 -166 419 0
-146 171 420 421 0
146 -171 420 421 0
-137 162 422 0
137 -162 422 0
-142 167 423 0
142 -167 423 0
-147 172 424 425 426 0
147 -172 424 425 426 0
-143 168 427 428 0
143 -168 427 428 0
-148 173 0
148 -173 0
-149 174 0
149 -174 0
-156 181 0
156 -181 0
-161 186 429 430 431 0
161 -186 429 430 431 0
-166 191 432 0
166 -191 432 0
-171 196 433 434 0
171 -196 433 434 0
-162 187 435 0
162 -187 435 0
-167 192 436 0
167 -192 436 0
-172 197 437 438 439 0
172 -197 437 438 439 0
-168 193 440 441 0
168 -193 440 441 0
-173 198 0
173 -198 0
-174 199 0
174 -199 0
-351 -352 0
-351 -353 0
-351 -354 0
-351 -355 0
-351 -356 0
-351 -357 0
-351 -362 0
-351 -363 0
-352 -351 0
-352 -353 0
-352 -354 0
-352 -355 0
-352 -356 0
-352 -357 0
-352 -362 0
-352 -363 0
-353 -351 0
-353 -352 0
-353 -354 0
-353 -355 0
-353 -356 0
-353 -357 0
-353 -362 0
-353 -363 0
-354 -351 0
-354 -352 0
-354 -353 0
-354 -355 0
-354 -356 0
-354 -358 0
-354 -362 0
-354 -363 0
-355 -351 0
-355 -352 0
-355 -353 0
-355 -354 0
-355 -356 0
-355 -359 0
-355 -360 0
-355 -361 0
-356 -351 0
-356 -352 0
-356 -353 0
-356 -354 0
-356 -355 0
-356 -359 0
-356 -360 0
-356 -361 0
-357 -351 0
-357 -352 0
-357 -353 0
-357 -358 0
-357 -359 0
-357 -360 0
-357 -361 0
-357 -362 0
-357 -363 0
-358 -354 0
-358 -357 0
-358 -359 0
-358 -360 0
-358 -361 0
-358 -362 0
-358 -363 0
-359 -355 0
-359 -356 0
-359 -357 0
-359 -358 0
-359 -360 0
-359 -361 0
-360 -355 0
-360 -356 0
-360 -357 0
-360 -358 0
-360 -359 0
-360 -361 0
-361 -355 0
-361 -356 0
-361 -357 0
-361 -358 0
-361 -359 0
-361 -360 0
-362 -351 0
-362 -352 0
-362 -353 0
-362 -354 0
-362 -357 0
-362 -358 0
-362 -363 0
-363 -351 0
-363 -352 0
-363 -353 0
-363 -354 0
-363 -357 0
-363 -358 0
-363 -362 0
-364 -365 0
-364 -366 0
-364 -367 0
-364 -368 0
-364 -369 0
-364 -370 0
-364 -375 0
-364 -376 0
-365 -364 0
-365 -366 0
-365 -367 0
-365 -368 0
-365 -369 0
-365 -370 0
-365 -375 0
-365 -376 0
-366 -364 0
-366 -365 0
-366 -367 0
-366 -368 0
-366 -369 0
-366 -370 0
-366 -375 0
-366 -376 0
-367 -364 0
-367 -365 0
-367 -366 0
-367 -368 0
-367 -369 0
-367 -371 0
-367 -375 0
-367 -376 0
-368 -364 0
-368 -365 0
-368 -366 0
-368 -367 0
-368 -369 0
-368 -372 0
-368 -373 0
-368 -374 0
-369 -364 0
-369 -365 0
-369 -366 0
-369 -367 0
-369 -368 0
-369 -372 0
-369 -373 0
-369 -374 0
-370 -364 0
-370 -365 0
-370 -366 0
-370 -371 0
-370 -372 0
-370 -373 0
-370 -374 0
-370 -375 0
-370 -376 0
-371 -367 0
-371 -370 0
-371 -372 0
-371 -373 0
-371 -374 0
-371 -375 0
-371 -376 0
-372 -368 0
-372 -369 0
-372 -370 0
-372 -371 0
-372 -373 0
-372 -374 0
-373 -368 0
-373 -369 0
-373 -370 0
-373 -371 0
-373 -372 0
-373 -374 0
-374 -368 0
-374 -369 0
-374 -370 0
-374 -371 0
-374 -372 0
-374 -373 0
-375 -364 0
-375 -365 0
-375 -366 0
-375 -367 0
-375 -370 0
-375 -371 0
-375 -376 0
-376 -364 0
-376 -365 0
-376 -366 0
-376 -367 0
-376 -370 0
-376 -371 0
-376 -375 0
-377 -378 0
-377 -379 0
-377 -380 0
-377 -381 0
-377 -382 0
-377 -383 0
-377 -388 0
-377 -389 0
-378 -377 0
-378 -379 0
-378 -380 0
-378 -381 0
-378 -382 0
-378 -383 0
-378 -388 0
-378 -389 0
-379 -377 0
-379 -378 0
-379 -380 0
-379 -381 0
-379 -382 0
-379 -383 0
-379 -388 0
-379 -389 0
-380 -377 0
-380 -378 0
-380 -379 0
-380 -381 0
-380 -382 0
-380 -384 0
-380 -388 0
-380 -389 0
-381 -377 0
-381 -378 0
-381 -379 0
-381 -380 0
-381 -382 0
-381 -385 0
-381 -386 0
-381 -387 0
-382 -377 0
-382 -378 0
-382 -379 0
-382 -380 0
-382 -381 0
-382 -385 0
-382 -386 0
-382 -387 0
-383 -377 0
-383 -378 0
-383 -379 0
-383 -384 0
-383 -385 0
-383 -386 0
-383 -387 0
-383 -388 0
-383 -389 0
-384 -380 0
-384 -383 0
-384 -385 0
-384 -386 0
-384 -387 0
-384 -388 0
-384 -389 0
-385 -381 0
-385 -382 0
-385 -383 0
-385 -384 0
-385 -386 0
-385 -387 0
-386 -381 0
-386 -382 0
-386 -383 0
-386 -384 0
-386 -385 0
-386 -387 0
-387 -381 0
-387 -382 0
-387 -383 0
-387 -384 0
-387 -385 0
-387 -386 0
-388 -377 0
-388 -378 0
-388 -379 0
-388 -380 0
-388 -383 0
-388 -384 0
-388 -389 0
-389 -377 0
-389 -378 0
-389 -379 0
-389 -380 0
-389 -383 0
-389 -384 0
-389 -388 0
-390 -391 0
-390 -392 0
-390 -393 0
-390 -394 0
-390 -395 0
-390 -396 0
-390 -401 0
-390 -402 0
-391 -390 0
-391 -392 0
-391 -393 0
-391 -394 0
-391 -395 0
-391 -396 0
-391 -401 0
-391 -402 0
-392 -390 0
-392 -391 0
-392 -393 0
-392 -394 0
-392 -395 0
-392 -396 0
-392 -401 0
-392 -402 0
-393 -390 0
-393 -391 0
-393 -392 0
-393 -394 0
-393 -395 0
-393 -397 0
-393 -401 0
-393 -402 0
-394 -390 0
-394 -391 0
-394 -392 0
-394 -393 0
-394 -395 0
-394 -398 0
-394 -399 0
-394 -400 0
-395 -390 0
-395 -391 0
-395 -392 0
-395 -393 0
-395 -394 0
-395 -398 0
-395 -399 0
-395 -400 0
-396 -390 0
-396 -391 0
-396 -392 0
-396 -397 0
-396 -398 0
-396 -399 0
-396 -400 0
-396 -401 0
-396 -402 0
-397 -393 0
-397 -396 0
-397 -398 0
-397 -399 0
-397 -400 0
-397 -401 0
-397 -402 0
-398 -394 0
-398 -395 0
-398 -396 0
-398 -397 0
-398 -399 0
-398 -400 0
-399 -394 0
-399 -395 0
-399 -396 0
-399 -397 0
-399 -398 0
-399 -400 0
-400 -394 0
-400 -395 0
-400 -396 0
-400 -397 0
-400 -398 0
-400 -399 0
-401 -390 0
-401 -391 0
-401 -392 0
-401 -393 0
-401 -396 0
-401 -397 0
-401 -402 0
-402 -390 0
-402 -391 0
-402 -392 0
-402 -393 0
-402 -396 0
-402 -397 0
-402 -401 0
-403 -404 0
-403 -405 0
-403 -406 0
-403 -407 0
-403 -408 0
-403 -409 0
-403 -414 0
-403 -415 0
-404 -403 0
-404 -405 0
-404 -406 0
-404 -407 0
-404 -408 0
-404 -409 0
-404 -414 0
-404 -415 0
-405 -403 0
-405 -404 0
-405 -406 0
-405 -407 0
-405 -408 0
-405 -409 0
-405 -414 0
-405 -415 0
-406 -403 0
-406 -404 0
-406 -405 0
-406 -407 0
-406 -408 0
-406 -410 0
-406 -414 0
-406 -415 0
-407 -403 0
-407 -404 0
-407 -405 0
-407 -406 0
-407 -408 0
-407 -411 0
-407 -412 0
-407 -413 0
-408 -403 0
-408 -404 0
-408 -405 0
-408 -406 0
-408 -407 0
-408 -411 0
-408 -412 0
-408 -413 0
-409 -403 0
-409 -404 0
-409 -405 0
-409 -410 0
-409 -411 0
-409 -412 0
-409 -413 0
-409 -414 0
-409 -415 0
-410 -406 0
-410 -409 0
-410 -411 0
-410 -412 0
-410 -413 0
-410 -414 0
-410 -415 0
-411 -407 0
-411 -408 0
-411 -409 0
-411 -410 0
-411 -412 0
-411 -413 0
-412 -407 0
-412 -408 0
-412 -409 0
-412 -410 0
-412 -411 0
-412 -413 0
-413 -407 0
-413 -408 0
-413 -409 0
-413 -410 0
-413 -411 0
-413 -412 0
-414 -403 0
-414 -404 0
-414 -405 0
-414 -406 0
-414 -409 0
-414 -410 0
-414 -415 0
-415 -403 0
-415 -404 0
-415 -405 0
-415 -406 0
-415 -409 0
-415 -410 0
-415 -414 0
-416 -417 0
-416 -418 0
-416 -419 0
-416 -420 0
-416 -421 0
-416 -422 0
-416 -427 0
-416 -428 0
-417 -416 0
-417 -418 0
-417 -419 0
-417 -420 0
-417 -421 0
-417 -422 0
-417 -427 0
-417 -428 0
-418 -416 0
-418 -417 0
-418 -419 0
-418 -420 0
-418 -421 0
-418 -422 0
-418 -427 0
-418 -428 0
-419 -416 0
-419 -417 0
-419 -418 0
-419 -420 0
-419 -421 0
-419 -423 0
-419 -427 0
-419 -428 0
-420 -416 0
-420 -417 0
-420 -418 0
-420 -419 0
-420 -421 0
-420 -424 0
-420 -425 0
-420 -426 0
-421 -416 0
-421 -417 0
-421 -418 0
-421 -419 0
-421 -420 0
-421 -424 0
-421 -425 0
-421 -426 0
-422 -416 0
-422 -417 0
-422 -418 0
-422 -423 0
-422 -424 0
-422 -425 0
-422 -426 0
-422 -427 0
-422 -428 0
-423 -419 0
-423 -422 0
-423 -424 0
-423 -425 0
-423 -426 0
-423 -427 0
-423 -428 0
-424 -420 0
-424 -421 0
-424 -422 0
-424 -423 0
-424 -425 0
-424 -426 0
-425 -420 0
-425 -421 0
-425 -422 0
-425 -423 0
-425 -424 0
-425 -426 0
-426 -420 0
-426 -421 0
-426 -422 0
-426 -423 0
-426 -424 0
-426 -425 0
-427 -416 0
-427 -417 0
-427 -418 0
-427 -419 0
-427 -422 0
-427 -423 0
-427 -428 0
-428 -416 0
-428 -417 0
-428 -418 0
-428 -419 0
-428 -422 0
-428 -423 0
-428 -427 0
-429 -430 0
-429 -431 0
-429 -432 0
-429 -433 0
-429 -434 0
-429 -435 0
-429 -440 0
-429 -441 0
-430 -429 0
-430 -431 0
-430 -432 0
-430 -433 0
-430 -434 0
-430 -435 0
-430 -440 0
-430 -441 0
-431 -429 0
-431 -430 0
-431 -432 0
-431 -433 0
-431 -434 0
-431 -435 0
-431 -440 0
-431 -441 0
-432 -429 0
-432 -430 0
-432 -431 0
-432 -433 0
-432 -434 0
-432 -436 0
-432 -440 0
-432 -441 0
-433 -429 0
-433 -430 0
-433 -431 0
-433 -432 0
-433 -434 0
-433 -437 0
-433 -438 0
-433 -439 0
-434 -429 0
-434 -430 0
-434 -431 0
-434 -432 0
-434 -433 0
-434 -437 0
-434 -438 0
-434 -439 0
-435 -429 0
-435 -430 0
-435 -431 0
-435 -436 0
-435 -437 0
-435 -438 0
-435 -439 0
-435 -440 0
-435 -441 0
-436 -432 0
-436 -435 0
-436 -437 0
-436 -438 0
-436 -439 0
-436 -440 0
-436 -441 0
-437 -433 0
-437 -434 0
-437 -435 0
-437 -436 0
-437 -438 0
-437 -439 0
-438 -433 0
-438 -434 0
-438 -435 0
-438 -436 0
-438 -437 0
-438 -439 0
-439 -433 0
-439 -434 0
-439 -435 0
-439 -436 0
-439 -437 0
-439 -438 0
-440 -429 0
-440 -430 0
-440 -431 0
-440 -432 0
-440 -435 0
-440 -436 0
-440 -441 0
-441 -429 0
-441 -430 0
-441 -431 0
-441 -432 0
-441 -435 0
-441 -436 0
-441 -440 0